TOUR_SECTION
1
17
194
64
21
51
121
13
65
151
128
39
54
154
89
167
155
63
86
143
98
159
94
123
84
104
158
101
187
56
76
37
42
36
58
163
107
77
189
49
91
153
124
109
102
18
136
186
99
165
30
35
169
119
181
175
31
180
83
142
34
41
10
53
164
82
28
137
138
134
141
173
29
110
47
23
199
115
166
11
177
196
178
25
8
192
20
27
127
26
148
171
15
45
5
88
114
113
193
174
191
195
130
14
70
190
2
162
117
78
6
72
201
12
48
95
16
122
32
40
100
68
81
188
46
112
3
87
96
103
44
198
22
61
60
126
79
118
152
185
200
75
19
106
74
105
132
157
160
85
38
172
90
183
33
92
179
129
139
111
73
57
120
66
55
108
168
116
147
184
24
133
146
197
176
170
161
93
140
135
50
62
67
71
149
43
52
59
69
80
97
125
182
9
131
150
145
144
4
7
156
-1
EOF